
Gurobi 6.0.4 (win64) logging started 06/23/15 14:11:09

Read LP format model from file C:\MT\repository\VRPTWMS\instances\mip\fuel\N14-C_DV100-C_SV30_F6_6_No_1.lp
Reading time = 0.03 seconds
(null): 1149 rows, 512 columns, 4917 nonzeros
Optimize a model with 1149 rows, 512 columns and 4917 nonzeros
Model has 2744 quadratic constraints
Coefficient statistics:
  Matrix range    [1e+00, 1e+06]
  Objective range [4e+04, 1e+07]
  Bounds range    [1e+00, 1e+06]
  RHS range       [1e+00, 1e+06]
Presolve removed 121 rows and 60 columns
Presolve time: 0.16s
Presolved: 5314 rows, 2595 columns, 29008 nonzeros
Variable types: 2143 continuous, 452 integer (394 binary)
Found heuristic solution: objective 1.363014e+08

Root relaxation: objective 2.030272e+06, 253 iterations, 0.02 seconds

    Nodes    |    Current Node    |     Objective Bounds      |     Work
 Expl Unexpl |  Obj  Depth IntInf | Incumbent    BestBd   Gap | It/Node Time

     0     0 2030272.30    0   52 1.3630e+08 2030272.30  98.5%     -    0s
H    0     0                    6.346490e+07 2030272.30  96.8%     -    0s
     0     0 3374398.82    0   71 6.3465e+07 3374398.82  94.7%     -    0s
     0     0 1.2114e+07    0   60 6.3465e+07 1.2114e+07  80.9%     -    0s
H    0     0                    5.328640e+07 1.2114e+07  77.3%     -    0s
     0     0 1.2183e+07    0   56 5.3286e+07 1.2183e+07  77.1%     -    0s
     0     0 1.2201e+07    0   69 5.3286e+07 1.2201e+07  77.1%     -    0s
     0     0 1.2210e+07    0   64 5.3286e+07 1.2210e+07  77.1%     -    0s
     0     0 1.2210e+07    0   73 5.3286e+07 1.2210e+07  77.1%     -    0s
     0     0 1.2210e+07    0   68 5.3286e+07 1.2210e+07  77.1%     -    0s
     0     2 1.2210e+07    0   66 5.3286e+07 1.2210e+07  77.1%     -    0s
H  303   207                    4.299920e+07 1.2463e+07  71.0%  27.1    1s
H  737   457                    4.290350e+07 1.2707e+07  70.4%  25.4    1s
  1059   623 2.3178e+07   17   65 4.2904e+07 1.2814e+07  70.1%  24.1    5s
  1076   635 2.3073e+07   15  102 4.2904e+07 1.2823e+07  70.1%  23.7   10s
  1089   643 3.3300e+07   14  102 4.2904e+07 1.2871e+07  70.0%  23.4   15s
* 1806   777              37    4.289390e+07 1.3573e+07  68.4%  30.5   19s
H 1877   768                    4.288500e+07 1.3857e+07  67.7%  31.4   19s
  2156   843 infeasible   34      4.2885e+07 1.4383e+07  66.5%  30.1   20s
H 2476   822                    4.277410e+07 1.6112e+07  62.3%  31.9   21s
  3508   969 3.2860e+07   36   32 4.2774e+07 2.2446e+07  47.5%  38.7   25s
H 5357  1079                    4.276870e+07 2.4570e+07  42.6%  42.5   29s
  5639  1013     cutoff   31      4.2769e+07 2.4765e+07  42.1%  42.8   30s
  7555   987 3.3281e+07   33   42 4.2769e+07 3.2549e+07  23.9%  42.9   35s
 10373   856 3.3093e+07   44   22 4.2769e+07 3.3013e+07  22.8%  42.6   40s
 12559   308 3.4033e+07   42   56 4.2769e+07 3.3351e+07  22.0%  42.8   45s

Cutting planes:
  Learned: 8
  Gomory: 5
  Cover: 203
  Implied bound: 143
  Clique: 16
  MIR: 38
  Flow cover: 168
  GUB cover: 37
  Zero half: 56

Explored 13202 nodes (564311 simplex iterations) in 46.18 seconds
Thread count was 2 (of 4 available processors)

Optimal solution found (tolerance 1.00e-04)
Best objective 4.276870000000e+07, best bound 4.276870000000e+07, gap 0.0%
k_c1	20000.0
k_c10	40000.0
k_c11	1000000.0
k_c12	950000.0
k_c13	60000.0
k_c14	870000.0
k_c2	960000.0
k_c3	200000.0
k_c4	40000.0
k_c5	50000.0
k_c6	80000.0
k_c7	70000.0
k_c8	1000000.0
k_c9	160000.0
k_dN	-0.0
o_1	0.0
o_10	-0.0
o_11	-0.0
o_12	0.0
o_13	-0.0
o_14	0.0
o_2	-0.0
o_3	-0.0
o_4	0.0
o_5	-0.0
o_6	-0.0
o_7	-0.0
o_8	-0.0
o_9	-0.0
p_1	0.0
p_10	0.0
p_11	0.0
p_12	-0.0
p_13	-0.0
p_14	-0.0
p_2	0.0
p_3	-0.0
p_4	0.0
p_5	0.0
p_6	0.0
p_7	0.0
p_8	-0.0
p_9	-0.0
phi_c1	12006.0
phi_c10	12336.0
phi_c11	48299.0
phi_c12	27602.0
phi_c13	32249.0
phi_c14	17728.0
phi_c2	46192.0
phi_c3	41292.0
phi_c4	24857.0
phi_c5	13795.0
phi_c6	43221.0
phi_c7	18525.0
phi_c8	54247.0
phi_c9	33210.0
phi_d0	60000.0
phi_dN	-0.0
tauD_c1	791750.0
tauD_c10	607050.0
tauD_c11	50000.0
tauD_c12	450000.0
tauD_c13	450000.0
tauD_c14	546900.0
tauD_c2	150100.0
tauD_c3	100000.0
tauD_c4	650000.0
tauD_c5	751425.0
tauD_c6	250000.0
tauD_c7	650000.0
tauD_c8	50000.0
tauD_c9	190200.0
tauD_d0	-0.0
tauD_dN	1000000.0
tauS_c1	-0.0
tauS_c10	-0.0
tauS_c11	0.0
tauS_c12	-0.0
tauS_c13	-0.0
tauS_c14	-0.0
tauS_c2	-0.0
tauS_c3	-0.0
tauS_c4	-0.0
tauS_c5	0.0
tauS_c6	-0.0
tauS_c7	-0.0
tauS_c8	-0.0
tauS_c9	-0.0
tauS_d0	-0.0
tauS_dN	915425.0
x_c10_dN	1.0
x_c11_dN	1.0
x_c12_c14	1.0
x_c13_c4	1.0
x_c14_c10	1.0
x_c1_dN	1.0
x_c2_c12	1.0
x_c3_c9	1.0
x_c4_c1	1.0
x_c5_dN	1.0
x_c6_c13	1.0
x_c7_c5	1.0
x_c8_c2	1.0
x_c9_c7	1.0
x_d0_c11	1.0
x_d0_c3	1.0
x_d0_c6	1.0
x_d0_c8	1.0
